;SMTLIBv2 Query 0
(set-option :produce-models true)
(set-logic QF_AUFBV )
(declare-fun v0___symfile____tmp_input___0_1_symfile___0 () (Array (_ BitVec 32) (_ BitVec 8) ) )
(assert (let ( (?B1 (select  v0___symfile____tmp_input___0_1_symfile___0 (_ bv1 32) ) ) (?B2 (select  v0___symfile____tmp_input___0_1_symfile___0 (_ bv0 32) ) ) ) (let ( (?B5 ((_ zero_extend 24)  ?B2 ) ) (?B3 ((_ zero_extend 24)  ?B1 ) ) (?B4 ((_ sign_extend 24)  ?B1 ) ) ) (and  (and  (and  (and  (and  (and  (and  (and  (and  (and  (and  (and  (and  (and  (and  (=  false (bvslt  (_ bv57 32) ?B4 ) ) (=  false (bvsle  ?B4 (_ bv47 32) ) ) ) (=  false (=  (_ bv0 32) (bvand  (bvadd  (_ bv4294967255 32) ?B3 ) (_ bv255 32) ) ) ) ) (=  false (=  (_ bv0 32) (bvand  (bvadd  (_ bv4294967256 32) ?B3 ) (_ bv255 32) ) ) ) ) (=  false (=  (_ bv0 32) (bvand  (bvadd  (_ bv4294967249 32) ?B3 ) (_ bv255 32) ) ) ) ) (=  false (=  (_ bv0 32) (bvand  (bvadd  (_ bv4294967254 32) ?B3 ) (_ bv255 32) ) ) ) ) (=  false (=  (_ bv0 32) (bvand  (bvadd  (_ bv4294967251 32) ?B3 ) (_ bv255 32) ) ) ) ) (=  false (=  (_ bv0 32) (bvand  (bvadd  (_ bv4294967253 32) ?B3 ) (_ bv255 32) ) ) ) ) (=  false (=  (_ bv0 32) (bvand  (bvadd  (_ bv4294967264 32) ?B3 ) (_ bv255 32) ) ) ) ) (=  (_ bv0 32) (bvand  (bvadd  (_ bv4294967251 32) ?B5 ) (_ bv255 32) ) ) ) (=  false (=  (_ bv0 32) (bvand  (bvadd  (_ bv4294967253 32) ?B5 ) (_ bv255 32) ) ) ) ) (=  false (=  (_ bv0 32) (bvand  (bvand  ?B5 ?B5 ) (_ bv255 32) ) ) ) ) (bvule  ?B1 (_ bv126 8) ) ) (bvule  (_ bv32 8) ?B1 ) ) (bvule  ?B2 (_ bv126 8) ) ) (bvule  (_ bv32 8) ?B2 ) ) ) ) )
(check-sat)
(get-value ( (select v0___symfile____tmp_input___0_1_symfile___0 (_ bv0 32) ) ) )
(get-value ( (select v0___symfile____tmp_input___0_1_symfile___0 (_ bv1 32) ) ) )
(exit)
